Nodes = {"1", "2", "3", "4", "5", "6", "7", "8", "9", "10", "11"};
Arcs = {<"1","2",33,0>, <"1","3",33,0>, <"1","4",33,339>, <"1","5",33,241>, <"1","6",33,333>, <"1","7",33,0>, <"1","8",33,0>, <"1","9",33,0>, <"1","10",33,0>, <"1","11",33,0>, <"2","1",33,0>, <"2","3",33,0>, <"2","4",33,0>, <"2","5",33,0>, <"2","6",33,0>, <"2","7",33,191>, <"2","8",33,0>, <"2","9",33,201>, <"2","10",33,0>, <"2","11",33,0>, <"3","1",33,0>, <"3","2",33,0>, <"3","4",33,197>, <"3","5",33,0>, <"3","6",33,0>, <"3","7",33,368>, <"3","8",33,0>, <"3","9",33,0>, <"3","10",33,0>, <"3","11",33,0>, <"4","1",33,339>, <"4","2",33,0>, <"4","3",33,197>, <"4","5",33,0>, <"4","6",33,0>, <"4","7",33,0>, <"4","8",33,0>, <"4","9",33,0>, <"4","10",33,0>, <"4","11",33,0>, <"5","1",33,241>, <"5","2",33,0>, <"5","3",33,0>, <"5","4",33,0>, <"5","6",33,0>, <"5","7",33,0>, <"5","8",33,0>, <"5","9",33,0>, <"5","10",33,330>, <"5","11",33,305>, <"6","1",33,333>, <"6","2",33,0>, <"6","3",33,0>, <"6","4",33,0>, <"6","5",33,0>, <"6","7",33,323>, <"6","8",33,0>, <"6","9",33,385>, <"6","10",33,0>, <"6","11",33,0>, <"7","1",33,0>, <"7","2",33,191>, <"7","3",33,368>, <"7","4",33,0>, <"7","5",33,0>, <"7","6",33,323>, <"7","8",33,0>, <"7","9",33,0>, <"7","10",33,0>, <"7","11",33,0>, <"8","1",33,0>, <"8","2",33,0>, <"8","3",33,0>, <"8","4",33,0>, <"8","5",33,0>, <"8","6",33,0>, <"8","7",33,0>, <"8","9",33,328>, <"8","10",33,0>, <"8","11",33,0>, <"9","1",33,0>, <"9","2",33,201>, <"9","3",33,0>, <"9","4",33,0>, <"9","5",33,0>, <"9","6",33,385>, <"9","7",33,0>, <"9","8",33,328>, <"9","10",33,0>, <"9","11",33,0>, <"10","1",33,0>, <"10","2",33,0>, <"10","3",33,0>, <"10","4",33,0>, <"10","5",33,330>, <"10","6",33,0>, <"10","7",33,0>, <"10","8",33,0>, <"10","9",33,0>, <"10","11",33,342>, <"11","1",33,0>, <"11","2",33,0>, <"11","3",33,0>, <"11","4",33,0>, <"11","5",33,305>, <"11","6",33,0>, <"11","7",33,0>, <"11","8",33,0>, <"11","9",33,0>, <"11","10",33,342>};
Demands = {<"1","2",2,0>, <"1","3",4,0>, <"1","4",6,0>, <"1","5",8,0>, <"1","6",10,0>, <"1","7",12,0>, <"1","8",14,0>, <"1","9",16,0>, <"1","10",18,0>, <"1","11",20,0>, <"2","1",2,0>, <"2","3",2,0>, <"2","4",4,0>, <"2","5",6,0>, <"2","6",8,0>, <"2","7",10,0>, <"2","8",12,0>, <"2","9",14,0>, <"2","10",16,0>, <"2","11",18,0>, <"3","1",4,0>, <"3","2",2,0>, <"3","4",2,0>, <"3","5",4,0>, <"3","6",6,0>, <"3","7",8,0>, <"3","8",10,0>, <"3","9",12,0>, <"3","10",14,0>, <"3","11",16,0>, <"4","1",6,0>, <"4","2",4,0>, <"4","3",2,0>, <"4","5",2,0>, <"4","6",4,0>, <"4","7",6,0>, <"4","8",8,0>, <"4","9",10,0>, <"4","10",12,0>, <"4","11",14,0>, <"5","1",8,0>, <"5","2",6,0>, <"5","3",4,0>, <"5","4",2,0>, <"5","6",2,0>, <"5","7",4,0>, <"5","8",6,0>, <"5","9",8,0>, <"5","10",10,0>, <"5","11",12,0>, <"6","1",10,0>, <"6","2",8,0>, <"6","3",6,0>, <"6","4",4,0>, <"6","5",2,0>, <"6","7",2,0>, <"6","8",4,0>, <"6","9",6,0>, <"6","10",8,0>, <"6","11",10,0>, <"7","1",12,0>, <"7","2",10,0>, <"7","3",8,0>, <"7","4",6,0>, <"7","5",4,0>, <"7","6",2,0>, <"7","8",2,0>, <"7","9",4,0>, <"7","10",6,0>, <"7","11",8,0>, <"8","1",14,0>, <"8","2",12,0>, <"8","3",10,0>, <"8","4",8,0>, <"8","5",6,0>, <"8","6",4,0>, <"8","7",2,0>, <"8","9",2,0>, <"8","10",4,0>, <"8","11",6,0>, <"9","1",16,0>, <"9","2",14,0>, <"9","3",12,0>, <"9","4",10,0>, <"9","5",8,0>, <"9","6",6,0>, <"9","7",4,0>, <"9","8",2,0>, <"9","10",2,0>, <"9","11",4,0>, <"10","1",18,0>, <"10","2",16,0>, <"10","3",14,0>, <"10","4",12,0>, <"10","5",10,0>, <"10","6",8,0>, <"10","7",6,0>, <"10","8",4,0>, <"10","9",2,0>, <"10","11",2,0>, <"11","1",20,0>, <"11","2",18,0>, <"11","3",16,0>, <"11","4",14,0>, <"11","5",12,0>, <"11","6",10,0>, <"11","7",8,0>, <"11","8",6,0>, <"11","9",4,0>, <"11","10",2,0>};
